n = 28;
k = 2;
roles = [
{d, m},
{m, d},
{d, m},
{m, g},
{m, g},
{g, f},
{f, m},
{m, f},
{f, d},
{f, m},
{m, f},
{m, g},
{g, f},
{d, f},
{d, g},
{g, f},
{g, d},
{g, d},
{g, f},
{f, d},
{g, f},
{g, f},
{f, m},
{d, g},
{d, m},
{m, d},
{d, f},
{g, f}
];
num_pairs = 2;
player1 = [24, 25];
player2 = [2, 18];
